18
67
40
16
26
23
56
44
101
49
54
62
102
93
28
25
104
106
75
90
6
98
4
29
81
10
105
46
7
86
22
87
78
38
11
65
36
45
52
58
91
66
55
71
99
32
60
27
21
17
2
64
3
85
80
0
110
41
68
8
88
63
43
14
77
95
35
47
79
12
69
83
70
5
20
